NAME : XML100_3371_10
DIMENSION : 101
NB_CLUSTERS : 5
CLUSTERING_ALG : KMedoids
CLUSTERING_PARAMS : k(4)
CLUSTERS
1 0
2 1 2 4 5 7 12 14 19 22 23 26 27 32 35 36 41 42 45 54 55 57 58 61 65 67 68 69 71 81 82 83 84 86 87 88 89 92 94 95
3 6 9 11 13 15 16 21 24 25 28 30 34 39 43 49 50 53 64 66 70 72 75 76 77 78 91 97 100
4 17 37 40 46 47 48 52 56 63 74 79 85 90 93 98
5 3 8 10 18 20 29 31 33 38 44 51 59 60 62 73 80 96 99
EOF